Reading model...
...model read.
creating competitive generators file...
...competitive generators recorded.
Loading data...
.. real-time data read.
Compiling instance...
...instance created.
Creating Offer Mitigation (model will solve as dispatch if TRUE)...
...storage offer mitigation file created
Converting model to MPEC...
...converted
NOTE: initial MIP solve with only storage competitive to get feasible solution
Solving...

Welcome to IBM(R) ILOG(R) CPLEX(R) Interactive Optimizer 12.10.0.0
  with Simplex, Mixed Integer & Barrier Optimizers
5725-A06 5725-A29 5724-Y48 5724-Y49 5724-Y54 5724-Y55 5655-Y21
Copyright IBM Corp. 1988, 2019.  All Rights Reserved.

Type 'help' for a list of available commands.
Type 'help' followed by a command name for more
information on commands.

CPLEX> Logfile 'cplex.log' closed.
Logfile 'C:\Users\wenmi\Desktop\competitiveMPEC\logs\tmp90wjh3fg.cplex.log' open.
CPLEX> New value for parallel optimization mode: -1
CPLEX> New value for mixed integer optimality gap tolerance: 0.05
CPLEX> New value for deterministic time limit in ticks: 100000
CPLEX> Problem 'C:\Users\wenmi\Desktop\competitiveMPEC\logs\tmpsslxkle0.pyomo.lp' read.
Read time = 0.31 sec. (27.41 ticks)
CPLEX> Problem name         : C:\Users\wenmi\Desktop\competitiveMPEC\logs\tmpsslxkle0.pyomo.lp
Objective sense      : Maximize
Variables            :  107779  [Nneg: 1,  Box: 44054,  Free: 8928,
                                 Binary: 54796]
Objective nonzeros   :   17522
Linear constraints   :  246995  [Less: 82866,  Greater: 118424,  Equal: 45705]
  Nonzeros           :  580829
  RHS nonzeros       :  134592

Variables            : Min LB: -5000.000        Max UB: 1000000.       
Objective nonzeros   : Min   : 0.1944444        Max   : 2500.000       
Linear constraints   :
  Nonzeros           : Min   : 0.1944444        Max   : 1000000.       
  RHS nonzeros       : Min   : 0.1944444        Max   : 1000000.       
CPLEX> Version identifier: 12.10.0.0 | 2019-11-26 | 843d4de2ae
CPXPARAM_Parallel                                -1
CPXPARAM_DetTimeLimit                            100000
CPXPARAM_MIP_Tolerances_MIPGap                   0.050000000000000003
Tried aggregator 3 times.
MIP Presolve eliminated 181717 rows and 41437 columns.
MIP Presolve added 6048 rows and 0 columns.
MIP Presolve modified 48952 coefficients.
Aggregator did 25854 substitutions.
Reduced MIP has 45472 rows, 38856 columns, and 126048 nonzeros.
Reduced MIP has 15300 binaries, 0 generals, 0 SOSs, and 0 indicators.
Presolve time = 0.34 sec. (328.92 ticks)
Probing fixed 863 vars, tightened 6902 bounds.
Probing time = 0.09 sec. (14.40 ticks)
Tried aggregator 2 times.
Detecting symmetries...
MIP Presolve eliminated 1962 rows and 1770 columns.
MIP Presolve modified 5486 coefficients.
Aggregator did 48 substitutions.
Reduced MIP has 43462 rows, 37038 columns, and 120210 nonzeros.
Reduced MIP has 14415 binaries, 0 generals, 0 SOSs, and 0 indicators.
Presolve time = 0.14 sec. (206.82 ticks)
Probing fixed 0 vars, tightened 180 bounds.
Probing time = 0.17 sec. (19.61 ticks)
Clique table members: 80800.
MIP emphasis: balance optimality and feasibility.
MIP search method: dynamic search.
Parallel mode: opportunistic, using up to 16 threads.
Root relaxation solution time = 0.58 sec. (1630.06 ticks)

        Nodes                                         Cuts/
   Node  Left     Objective  IInf  Best Integer    Best Bound    ItCnt     Gap

      0     0     1268.0501   155                   1268.0501     9257         
      0     0     1268.0499   155                    Cuts: 51     9285         
      0     0     1268.0499   155                    Cuts: 17     9297         
      0     0     1268.0499   155                     Cuts: 4     9303         
      0     0     1268.0499   155                     Cuts: 9     9315         
      0     2     1268.0499    21                   1268.0499     9315         
Elapsed time = 6.23 sec. (6227.02 ticks, tree = 0.02 MB, solutions = 0)
    109    34     1052.1627     6                   1140.7339     9503         
    332    71     1106.7247     8                   1140.7339     9726         
    539   223      546.5610    10                   1140.7339    12047         
*   544   197      integral     0     1077.5209     1140.7339    11093    5.87%
    604    79     1140.7339     9     1081.0809     1140.7339    13088    5.52%

Cover cuts applied:  10
Implied bound cuts applied:  1
Flow cuts applied:  5
Mixed integer rounding cuts applied:  16
Gomory fractional cuts applied:  15

Root node processing (before b&c):
  Real time             =    4.51 sec. (6114.42 ticks)
Parallel b&c, 16 threads:
  Real time             =    4.38 sec. (1214.57 ticks)
  Sync time (average)   =    0.68 sec.
  Wait time (average)   =    0.00 sec.
                          ------------
Total (root+branch&cut) =    8.89 sec. (7328.98 ticks)

Solution pool: 2 solutions saved.

MIP - Integer optimal, tolerance (0.05/1e-06):  Objective =  1.0810809472e+03
Current MIP best bound =  1.1341323993e+03 (gap = 53.0515, 4.91%)
Solution time =    8.89 sec.  Iterations = 15511  Nodes = 613 (28)
Deterministic time = 7329.29 ticks  (824.44 ticks/sec)

CPLEX> Incumbent solution written to file 'C:\Users\wenmi\Desktop\competitiveMPEC\logs\tmpsm9p5l_c.cplex.sol'.
CPLEX> NOTE: no warmstart specified for MIP iteration, default behavior is true
NOTE: resolving with all competitive generators using storage-only solution to warmstart
Solving...

Welcome to IBM(R) ILOG(R) CPLEX(R) Interactive Optimizer 12.10.0.0
  with Simplex, Mixed Integer & Barrier Optimizers
5725-A06 5725-A29 5724-Y48 5724-Y49 5724-Y54 5724-Y55 5655-Y21
Copyright IBM Corp. 1988, 2019.  All Rights Reserved.

Type 'help' for a list of available commands.
Type 'help' followed by a command name for more
information on commands.

CPLEX> Logfile 'cplex.log' closed.
Logfile 'C:\Users\wenmi\Desktop\competitiveMPEC\logs\tmplili9n_n.cplex.log' open.
CPLEX> New value for parallel optimization mode: -1
CPLEX> New value for mixed integer optimality gap tolerance: 0.05
CPLEX> New value for deterministic time limit in ticks: 100000
CPLEX> Problem 'C:\Users\wenmi\Desktop\competitiveMPEC\logs\tmphoc37sqy.pyomo.lp' read.
Read time = 0.31 sec. (27.45 ticks)
CPLEX> MIP start file 'C:\Users\wenmi\Desktop\competitiveMPEC\logs\tmp2efxfx_p.cplex.mst' read.
CPLEX> Problem name         : C:\Users\wenmi\Desktop\competitiveMPEC\logs\tmphoc37sqy.pyomo.lp
Objective sense      : Maximize
Variables            :  109219  [Nneg: 1,  Box: 45494,  Free: 8928,
                                 Binary: 54796]
Objective nonzeros   :   18914
Linear constraints   :  246995  [Less: 82866,  Greater: 118424,  Equal: 45705]
  Nonzeros           :  580829
  RHS nonzeros       :  134592

Variables            : Min LB: -5000.000        Max UB: 1000000.       
Objective nonzeros   : Min   : 0.1944444        Max   : 2500.000       
Linear constraints   :
  Nonzeros           : Min   : 0.1944444        Max   : 1000000.       
  RHS nonzeros       : Min   : 0.1944444        Max   : 1000000.       
CPLEX> Version identifier: 12.10.0.0 | 2019-11-26 | 843d4de2ae
CPXPARAM_Parallel                                -1
CPXPARAM_DetTimeLimit                            100000
CPXPARAM_MIP_Tolerances_MIPGap                   0.050000000000000003
1 of 1 MIP starts provided solutions.
MIP start 'm1' defined initial solution with objective 8169.1060.
Tried aggregator 3 times.
MIP Presolve eliminated 181717 rows and 42877 columns.
MIP Presolve added 6048 rows and 0 columns.
MIP Presolve modified 48952 coefficients.
Aggregator did 25854 substitutions.
Reduced MIP has 45472 rows, 38856 columns, and 126048 nonzeros.
Reduced MIP has 15300 binaries, 0 generals, 0 SOSs, and 0 indicators.
Presolve time = 0.33 sec. (329.63 ticks)
Probing fixed 863 vars, tightened 6902 bounds.
Probing time = 0.06 sec. (14.40 ticks)
Tried aggregator 2 times.
Detecting symmetries...
MIP Presolve eliminated 1962 rows and 1770 columns.
MIP Presolve modified 5486 coefficients.
Aggregator did 48 substitutions.
Reduced MIP has 43462 rows, 37038 columns, and 120210 nonzeros.
Reduced MIP has 14415 binaries, 0 generals, 0 SOSs, and 0 indicators.
Presolve time = 0.14 sec. (206.82 ticks)
Probing fixed 0 vars, tightened 133 bounds.
Probing time = 0.16 sec. (16.31 ticks)
Clique table members: 80221.
MIP emphasis: balance optimality and feasibility.
MIP search method: dynamic search.
Parallel mode: opportunistic, using up to 16 threads.
Root relaxation solution time = 0.66 sec. (1659.46 ticks)

        Nodes                                         Cuts/
   Node  Left     Objective  IInf  Best Integer    Best Bound    ItCnt     Gap

*     0+    0                         8169.1060  9154321.3270              --- 
      0     0    23836.1300   353     8169.1060    23836.1300     9844  191.78%
      0     0    22495.7186   353     8169.1060     Cuts: 376    10546  175.38%
      0     0    22292.6012   353     8169.1060     Cuts: 790    10877  172.89%
      0     0    22238.3294   353     8169.1060     Cuts: 615    11015  172.22%
      0     0    22226.6717   353     8169.1060     Cuts: 379    11099  172.08%
      0     0    22159.9551   353     8169.1060     Cuts: 187    11180  171.27%
      0     0    22149.2168   353     8169.1060      Cuts: 51    11210  171.13%
      0     0    22148.4585   353     8169.1060      Cuts: 41    11232  171.12%
      0     0    22147.6455   353     8169.1060      Cuts: 43    11238  171.11%
      0     0    22143.6102   353     8169.1060     Cuts: 265    11283  171.07%
      0     0    22137.9098   353     8169.1060     Cuts: 103    11326  171.00%
      0     0    22137.0059   353     8169.1060      Cuts: 70    11346  170.98%
      0     3    21577.1058   277     8169.1060    22134.9525    11418  170.96%
Elapsed time = 7.47 sec. (6908.26 ticks, tree = 0.02 MB, solutions = 1)
    163    38    21525.4711   249     8169.1060    21922.0134    12104  168.35%
    255    32    21602.4278   253     8169.1060    21922.0134    11937  168.35%
    402   166    17233.6171   174     8169.1060    21877.7649    15386  167.81%
    553   219    17080.5145   170     8169.1060    21877.7649    16337  167.81%
    703   173    15919.8947   111     8169.1060    21877.7649    15327  167.81%
    877   477    13817.6459   111     8169.1060    21877.7649    20738  167.81%
   1077   390    13286.4212    92     8169.1060    21877.7649    19455  167.81%
   1275   495    14342.0431    81     8169.1060    21877.7649    20899  167.81%
   1457   690    14827.4875   128     8169.1060    21877.7649    24086  167.81%
   2010  1026    10536.7669    76     8169.1060    21877.7649    27520  167.81%
Elapsed time = 25.55 sec. (10029.93 ticks, tree = 35.81 MB, solutions = 1)
   2605  1623    15165.7310   201     8169.1060    21686.1636    36630  165.47%
   3212  2065    10926.0794    53     8169.1060    21665.5964    45928  165.21%
   3890  2229     9039.2944    52     8169.1060    21665.5964    47861  165.21%
   4523  2917    13951.4023   177     8169.1060    21665.5964    59128  165.21%
   5106  3471     9091.1778   122     8169.1060    21665.5964    65377  165.21%

Performing restart 1

Repeating presolve.
Tried aggregator 3 times.
MIP Presolve eliminated 1535 rows and 1386 columns.
MIP Presolve modified 78433 coefficients.
Aggregator did 461 substitutions.
Reduced MIP has 41466 rows, 35191 columns, and 113479 nonzeros.
Reduced MIP has 13818 binaries, 0 generals, 0 SOSs, and 0 indicators.
Presolve time = 0.17 sec. (183.19 ticks)
Tried aggregator 2 times.
MIP Presolve eliminated 909 rows and 764 columns.
MIP Presolve modified 20069 coefficients.
Aggregator did 63 substitutions.
Reduced MIP has 40494 rows, 34364 columns, and 110955 nonzeros.
Reduced MIP has 13436 binaries, 0 generals, 0 SOSs, and 0 indicators.
Presolve time = 0.08 sec. (71.17 ticks)
Tried aggregator 2 times.
MIP Presolve modified 17098 coefficients.
Aggregator did 3 substitutions.
Reduced MIP has 40491 rows, 34361 columns, and 110946 nonzeros.
Reduced MIP has 13436 binaries, 0 generals, 0 SOSs, and 0 indicators.
Presolve time = 0.11 sec. (109.11 ticks)
Represolve time = 1.09 sec. (607.64 ticks)
   5288     0    16416.6506   408     8169.1060     Cuts: 747    91442  100.96%
   5288     0    16413.2529   408     8169.1060     Cuts: 170    91535  100.92%
   5288     0    16403.0167   408     8169.1060     Cuts: 173    91636  100.79%
   5288     0    16396.1255   408     8169.1060     Cuts: 184    91773  100.71%
   5288     0    16387.4050   408     8169.1060      Cuts: 61    91852  100.60%
   5288     0    16360.6470   408     8169.1060      Cuts: 44    91915  100.27%
   5288     0    16301.5545   408     8169.1060      Cuts: 73    91970   99.55%
   5288     0    16300.6197   408     8169.1060      Cuts: 60    92008   99.54%
   5288     0    16289.6021   408     8169.1060      Cuts: 48    92052   99.40%
   5288     0    16278.0965   408     8169.1060      Cuts: 79    92097   99.26%
   5288     0    16271.0584   408     8169.1060      Cuts: 65    92162   99.18%
   5288     0    16269.6607   408     8169.1060      Cuts: 91    92219   99.16%
   5288     0    16267.1640   408     8169.1060      Cuts: 64    92276   99.13%
   5288     0    16259.1972   408     8169.1060      Cuts: 53    92325   99.03%
   5288     0    16258.2074   408     8169.1060      Cuts: 71    92367   99.02%
   5288     0    16257.6678   408     8169.1060      Cuts: 43    92400   99.01%
   5288     0    16256.6627   408     8169.1060     Cuts: 296    92489   99.00%
   5288     0    16254.5814   408     8169.1060     Cuts: 129    92554   98.98%
   5288     0    16254.5492   408     8169.1060      Cuts: 88    92597   98.98%
   5288     0    16253.6008   408     8169.1060     Cuts: 189    92672   98.96%
   5288     0    16253.5261   408     8169.1060     Cuts: 171    92742   98.96%
   5288     4        cutoff           8169.1060    15662.5421    92894   91.73%
   5340    33    12399.9458   223     8169.1060    14415.1781    94805   76.46%
   5448    53    10822.5226   275     8169.1060    14415.1781    95589   76.46%
   5634    65    11289.9366   242     8169.1060    14415.1781    95794   76.46%
   5845    80    11771.1349   211     8169.1060    14415.1781    96369   76.46%
Elapsed time = 86.99 sec. (35251.93 ticks, tree = 0.67 MB, solutions = 1)
   6200   606    10680.3936   255     8169.1060    14415.1781   113048   76.46%
   6689   286    11026.0609   168     8169.1060    13955.0117   102239   70.83%
   7234   565    10083.3291   109     8169.1060    13955.0117   111045   70.83%
   7742   478    10283.4078   188     8169.1060    13765.9444   107898   68.51%
   8405   442    11382.1102   200     8169.1060    13765.9444   108287   68.51%
   9119  1611    10111.9987   227     8169.1060    13765.9444   135834   68.51%
   9754  1923    10259.4724   186     8169.1060    13314.5593   144367   62.99%
  10461  4167    10078.1003    98     8169.1060    13314.5593   188933   62.99%
  11100  2846    10707.7410   233     8169.1060    13314.5593   160235   62.99%
  11666  5144    10996.2151   114     8169.1060    13314.5593   216986   62.99%
Elapsed time = 143.42 sec. (44808.43 ticks, tree = 71.95 MB, solutions = 1)
  12168  3218     9529.6662   176     8169.1060    12935.4929   168868   58.35%
  12677  5951    10766.7557   137     8169.1060    12935.4929   235105   58.35%
  13295  5995    10238.4677    86     8169.1060    12935.4929   236088   58.35%
  13906  4990     9641.5761   160     8169.1060    12836.7295   211959   57.14%
  14527  5035     9510.0861   212     8169.1060    12836.7295   212934   57.14%
  15158  4427     9538.4459   117     8169.1060    12670.1558   196030   55.10%
  15762  6525    11932.5549   201     8169.1060    12670.1558   247983   55.10%
  16357  4885    10244.4965   105     8169.1060    12670.1558   208025   55.10%
  16965  6166     8721.8058   167     8169.1060    12641.2037   240027   54.74%
  17548  7178     9217.1468   130     8169.1060    12641.2037   263454   54.74%
Elapsed time = 196.02 sec. (54362.99 ticks, tree = 99.59 MB, solutions = 1)
  18038 10646    11214.2834   177     8169.1060    12641.2037   340922   54.74%
  18588  7286    11371.8806   168     8169.1060    12571.8603   266254   53.90%
  19262 13095    11684.4888   217     8169.1060    12571.8603   387518   53.90%
  19878 12428     8787.7540   138     8169.1060    12466.5297   375963   52.61%
  20545  8278    11421.5468   106     8169.1060    12466.5297   288272   52.61%
  21164  9599    11159.4801   125     8169.1060    12466.5297   317072   52.61%
  21837  8729        cutoff           8169.1060    12466.5297   298766   52.61%
  22498  9694     8833.2644   139     8169.1060    12466.5297   318873   52.61%
  23171 17609     8610.2833   115     8169.1060    12362.1023   478336   51.33%
  23844 10394        cutoff           8169.1060    12362.1023   333825   51.33%
Elapsed time = 251.70 sec. (63915.88 ticks, tree = 143.53 MB, solutions = 1)
  24422 12994    10419.7291   144     8169.1060    12362.1023   387062   51.33%
  25046 11728     9555.5525   121     8169.1060    12362.1023   361749   51.33%
  25672 12106    10512.5522    86     8169.1060    12285.2740   368514   50.39%
  26246 18684    10766.3610   139     8169.1060    12285.2740   496241   50.39%
  26800 13456    10537.9957   154     8169.1060    12285.2740   395052   50.39%
  27429 20620    10088.3212    64     8169.1060    12163.5303   536126   48.90%
  28090 20225     9145.7274   123     8169.1060    12163.5303   527841   48.90%
  28730 17921    11224.6368   143     8169.1060    12163.5303   485074   48.90%
  29342 15098    10572.8759   123     8169.1060    12163.5303   428665   48.90%
  30111 15164    10313.7565    67     8169.1060    12163.5303   429475   48.90%
Elapsed time = 304.31 sec. (73467.41 ticks, tree = 207.18 MB, solutions = 1)
  30909 15767    10147.4745   148     8169.1060    12109.4550   442967   48.23%
  31636 14903     9911.1550    76     8169.1060    12109.4550   425112   48.23%
  32344 15419    10329.1272   131     8169.1060    12109.4550   435693   48.23%
  33025 19838    11444.8210   175     8169.1060    12109.4550   520204   48.23%
  33645 23764     9680.7205   113     8169.1060    12109.4550   601631   48.23%
  34347 17948     9036.7116   149     8169.1060    12089.3380   484208   47.99%
  35040 20576     9764.1661   125     8169.1060    12089.3380   535840   47.99%
  35686 19185    10589.7954   139     8169.1060    12089.3380   506272   47.99%
  36385 19241     9990.5136   146     8169.1060    12089.3380   506910   47.99%
  37036 21657     9365.0888    58     8169.1060    12089.3380   558163   47.99%
Elapsed time = 345.00 sec. (83022.39 ticks, tree = 296.28 MB, solutions = 1)
  37703 25977        cutoff           8169.1060    12089.3380   649335   47.99%
  38391 21002    10729.2766   118     8169.1060    12089.3380   541734   47.99%
  38985 21907    10251.9824    56     8169.1060    12089.3380   562702   47.99%
  39538 22019    10392.8374   109     8169.1060    12089.3380   562805   47.99%
  40019 22078     9370.8717    41     8169.1060    12089.3380   563329   47.99%
  40502 24075    10590.0770   132     8169.1060    12089.3380   608028   47.99%
  41031 24355     9695.1342   113     8169.1060    12089.3380   614229   47.99%
  41481 24165    10239.1785    85     8169.1060    12089.3380   609356   47.99%
  41932 24428     9606.5173   119     8169.1060    12089.3380   615515   47.99%
  42379 24581     9388.5590   120     8169.1060    12089.3380   619131   47.99%
Elapsed time = 352.91 sec. (92577.27 ticks, tree = 336.91 MB, solutions = 1)
  42788 24731     9803.1834   138     8169.1060    12089.3380   622438   47.99%
  43228 24524    10619.3825   136     8169.1060    12089.3380   618077   47.99%
  43623 26649     9631.6504   209     8169.1060    12089.3380   663073   47.99%
  44018 26500    10437.6505   155     8169.1060    12089.3380   659691   47.99%
  44407 25101        cutoff           8169.1060    12089.3380   631068   47.99%
  44757 26401     9285.4452   136     8169.1060    12089.3380   658106   47.99%
  45027 26459    10001.8497    65     8169.1060    12089.3380   659065   47.99%

GUB cover cuts applied:  6
Cover cuts applied:  16
Implied bound cuts applied:  2
Flow cuts applied:  487
Mixed integer rounding cuts applied:  166
Lift and project cuts applied:  19
Gomory fractional cuts applied:  1

Root node processing (before b&c):
  Real time             =    5.95 sec. (6769.80 ticks)
Parallel b&c, 16 threads:
  Real time             =  349.91 sec. (93245.47 ticks)
  Sync time (average)   =    2.58 sec.
  Wait time (average)   =    0.08 sec.
                          ------------
Total (root+branch&cut) =  355.86 sec. (100015.28 ticks)

Solution pool: 1 solution saved.

MIP - Deterministic time limit exceeded, integer feasible:  Objective =  8.1691060197e+03
Current MIP best bound =  1.1901699685e+04 (gap = 3732.59, 45.69%)
Solution time =  355.86 sec.  Iterations = 815834  Nodes = 45207 (34201)
Deterministic time = 100015.59 ticks  (281.05 ticks/sec)

CPLEX> Incumbent solution written to file 'C:\Users\wenmi\Desktop\competitiveMPEC\logs\tmp8tsl2z13.cplex.sol'.
CPLEX> Exporting results... 
